11481
1 1 1 0 1 0 1 0 0 1 0 0 1 1 1 0 0 1 0 0 0 1 1 1 1 0 0 0 1 1
0 17 17 9 23 9 28 9 22 21 1 28 0 12 13 0 24 1 2 12 0 23 2 24 0 29 14 4 29 17 28 14 2 6 12 28 0 0 21 13 29 0 28 17 24 23 1 23 6 13 23 2 28 4 4 14 17 28 0 23 12 4 21 1 21 9 22 14 2 24